2
100 3
98
1 1 6
2 1 8
3 1 2
4 1 4
5 1 4
6 1 6
7 1 5
8 1 1
9 1 6
10 1 3
11 1 5
12 1 3
13 1 5
14 1 9
15 1 3
16 1 2
17 1 4
18 1 6
19 1 4
20 1 5
21 1 2
22 1 2
23 1 7
24 1 2
25 1 4
26 1 2
27 1 4
28 1 7
29 1 4
31 1 7
32 1 12
33 1 3
34 1 8
35 1 4
36 1 3
37 1 8
38 1 6
39 1 9
40 1 6
41 1 13
42 1 4
43 1 4
44 1 5
45 1 4
46 1 4
47 1 6
48 1 9
49 1 5
50 1 12
51 1 5
52 1 4
53 1 8
54 1 5
55 1 6
56 1 4
57 1 2
58 1 10
59 1 6
60 1 2
61 1 2
62 1 5
63 1 9
64 1 3
65 1 5
66 1 3
67 1 2
68 1 6
69 1 5
70 1 3
72 1 4
73 1 7
74 1 6
75 1 7
76 1 5
77 1 5
78 1 4
79 1 1
80 1 5
81 1 6
82 1 7
83 1 2
84 1 5
85 1 5
86 1 7
87 1 6
88 1 7
89 1 3
90 1 8
91 1 5
92 1 5
93 1 4
94 1 2
95 1 4
96 1 2
97 1 5
98 1 7
99 1 8
100 1 6
